Problem:    v2Festivals
Rows:       7
Columns:    4 (4 integer, 4 binary)
Non-zeros:  19
Status:     INTEGER OPTIMAL
Objective:  FestivalsWeGoTo = 2 (MINimum)

   No.   Row name        Activity     Lower bound   Upper bound
------ ------------    ------------- ------------- -------------
     1 MustSeeEachBandAtLeastOnce[Dalriada]
                                   1             1               
     2 MustSeeEachBandAtLeastOnce[Metallica]
                                   1             1               
     3 MustSeeEachBandAtLeastOnce[Eluveitie]
                                   2             1               
     4 MustSeeEachBandAtLeastOnce[Liva]
                                   2             1               
     5 MustSeeEachBandAtLeastOnce[IcedEarth]
                                   1             1               
     6 MustSeeEachBandAtLeastOnce[Virrasztok]
                                   1             1               
     7 FestivalsWeGoTo
                                   2                             

   No. Column name       Activity     Lower bound   Upper bound
------ ------------    ------------- ------------- -------------
     1 goto[RockMarathon]
                    *              1             0             1 
     2 goto[Sziget] *              0             0             1 
     3 goto[Volt]   *              1             0             1 
     4 goto[MetalFest]
                    *              0             0             1 

Integer feasibility conditions:

KKT.PE: max.abs.err = 0.00e+00 on row 0
        max.rel.err = 0.00e+00 on row 0
        High quality

KKT.PB: max.abs.err = 0.00e+00 on row 0
        max.rel.err = 0.00e+00 on row 0
        High quality

End of output
